(set-logic QF_UFLIAFS)
(declare-fun x!16 () Int)
(declare-fun c!17 () (Set Int))
(declare-fun c1!18 () (Set Int))
(declare-fun alloc1!19 () (Set Int))
(declare-fun alloc0!20 () (Set Int))
(declare-fun alloc2!21 () (Set Int))
(assert
(and (member x!16 c!17)
     (= c1!18 (setminus c!17 (singleton x!16)))
     (<= (card (setminus alloc1!19 alloc0!20)) 1)
     (<= (card (setminus alloc2!21 alloc1!19))
         (card c1!18))
     (> (card (setminus alloc2!21 alloc0!20))
        (card c!17)))
)
(check-sat)
